n = 5;
K = 1;
capacity = [100];
nodeInfo = [
<0,0,1150,0>
<10,31,226,90>
<30,138,320,90>
<10,337,595,90>
<30,317,550,90>
<10,25,105,90>
<-10,313,545,90>
<-30,358,528,90>
<-10,569,819,90>
<-30,561,721,90>
<-10,800,960,90>
<0,0,1150,0>
];
X = [45,52,45,62,65,48,72,60,60,60,68,45];
Y = [55,72,70,69,72,65,52,75,55,66,45,55];
membership = [1,0,1,0,1,1,0,1,0,1,1,1];
alpha = 3;
beta = 1;
